85 186 58 184 16 140 22 114 157 152 
38 156 192 151 3 127 7 49 135 81 
176 5 84 82 60 125 191 4 106 188 83 118 
113 155 90 143 108 72 9 161 131 74 107 
109 70 77 14 122 163 145 123 198 26 
37 59 30 144 46 136 189 171 64 
40 115 39 128 121 99 158 190 166 
62 68 130 89 168 29 41 172 91 164 66 147 
199 63 54 35 193 167 47 73 169 170 
44 150 187 15 153 100 154 162 80 87 196 
76 134 197 24 133 1 101 53 126 28 
148 200 69 195 194 92 21 112 105 96 139 
55 159 18 181 79 179 142 98 119 
146 75 182 42 141 103 110 178 175 17 
27 23 183 43 10 165 95 57 34 13 
93 50 31 25 61 120 52 173 149 97 
177 88 185 117 111 71 36 67 78 48 
32 174 129 116 6 33 11 12 20 2 
45 137 102 19 132 104 138 124 94 
65 8 86 51 56 
160 
180 

